p cnf 98 292
-4 -1 -2 0
4 1 -2 0
4 -1 2 0
-4 1 2 0
-5 2 3 0
5 -2 0
5 -3 0
-6 -3 -3 0
6 3 0
6 3 0
7 -5 -3 0
-7 5 0
-7 3 0
-8 4 7 0
8 -4 0
8 -7 0
-9 -7 -6 0
9 7 -6 0
9 -7 6 0
-9 7 6 0
10 -8 -9 0
-10 8 0
-10 9 0
1 -91 11 0
1 91 -11 0
-1 -92 11 0
-1 92 -11 0
1 -93 12 0
1 93 -12 0
-1 -94 12 0
-1 94 -12 0
1 -95 13 0
1 95 -13 0
-1 -96 13 0
-1 96 -13 0
1 -97 14 0
1 97 -14 0
-1 -98 14 0
-1 98 -14 0
2 -11 15 0
2 11 -15 0
-2 -12 15 0
-2 12 -15 0
2 -13 16 0
2 13 -16 0
-2 -14 16 0
-2 14 -16 0
3 -15 17 0
3 15 -17 0
-3 -16 17 0
-3 16 -17 0
-18 -10 -17 0
18 10 -17 0
18 -10 17 0
-18 10 17 0
-22 -19 -20 0
22 19 -20 0
22 -19 20 0
-22 19 20 0
-23 20 21 0
23 -20 0
23 -21 0
-24 -21 -21 0
24 21 0
24 21 0
25 -23 -21 0
-25 23 0
-25 21 0
-26 22 25 0
26 -22 0
26 -25 0
-27 -25 -24 0
27 25 -24 0
27 -25 24 0
-27 25 24 0
28 -26 -27 0
-28 26 0
-28 27 0
19 -91 29 0
19 91 -29 0
-19 -92 29 0
-19 92 -29 0
19 -93 30 0
19 93 -30 0
-19 -94 30 0
-19 94 -30 0
19 -95 31 0
19 95 -31 0
-19 -96 31 0
-19 96 -31 0
19 -97 32 0
19 97 -32 0
-19 -98 32 0
-19 98 -32 0
20 -29 33 0
20 29 -33 0
-20 -30 33 0
-20 30 -33 0
20 -31 34 0
20 31 -34 0
-20 -32 34 0
-20 32 -34 0
21 -33 35 0
21 33 -35 0
-21 -34 35 0
-21 34 -35 0
-36 -28 -35 0
36 28 -35 0
36 -28 35 0
-36 28 35 0
-40 -37 -38 0
40 37 -38 0
40 -37 38 0
-40 37 38 0
-41 38 39 0
41 -38 0
41 -39 0
-42 -39 -39 0
42 39 0
42 39 0
43 -41 -39 0
-43 41 0
-43 39 0
-44 40 43 0
44 -40 0
44 -43 0
-45 -43 -42 0
45 43 -42 0
45 -43 42 0
-45 43 42 0
46 -44 -45 0
-46 44 0
-46 45 0
37 -91 47 0
37 91 -47 0
-37 -92 47 0
-37 92 -47 0
37 -93 48 0
37 93 -48 0
-37 -94 48 0
-37 94 -48 0
37 -95 49 0
37 95 -49 0
-37 -96 49 0
-37 96 -49 0
37 -97 50 0
37 97 -50 0
-37 -98 50 0
-37 98 -50 0
38 -47 51 0
38 47 -51 0
-38 -48 51 0
-38 48 -51 0
38 -49 52 0
38 49 -52 0
-38 -50 52 0
-38 50 -52 0
39 -51 53 0
39 51 -53 0
-39 -52 53 0
-39 52 -53 0
-54 -46 -53 0
54 46 -53 0
54 -46 53 0
-54 46 53 0
-58 -55 -56 0
58 55 -56 0
58 -55 56 0
-58 55 56 0
-59 56 57 0
59 -56 0
59 -57 0
-60 -57 -57 0
60 57 0
60 57 0
61 -59 -57 0
-61 59 0
-61 57 0
-62 58 61 0
62 -58 0
62 -61 0
-63 -61 -60 0
63 61 -60 0
63 -61 60 0
-63 61 60 0
64 -62 -63 0
-64 62 0
-64 63 0
55 -91 65 0
55 91 -65 0
-55 -92 65 0
-55 92 -65 0
55 -93 66 0
55 93 -66 0
-55 -94 66 0
-55 94 -66 0
55 -95 67 0
55 95 -67 0
-55 -96 67 0
-55 96 -67 0
55 -97 68 0
55 97 -68 0
-55 -98 68 0
-55 98 -68 0
56 -65 69 0
56 65 -69 0
-56 -66 69 0
-56 66 -69 0
56 -67 70 0
56 67 -70 0
-56 -68 70 0
-56 68 -70 0
57 -69 71 0
57 69 -71 0
-57 -70 71 0
-57 70 -71 0
-72 -64 -71 0
72 64 -71 0
72 -64 71 0
-72 64 71 0
-76 -73 -74 0
76 73 -74 0
76 -73 74 0
-76 73 74 0
-77 74 75 0
77 -74 0
77 -75 0
-78 -75 -75 0
78 75 0
78 75 0
79 -77 -75 0
-79 77 0
-79 75 0
-80 76 79 0
80 -76 0
80 -79 0
-81 -79 -78 0
81 79 -78 0
81 -79 78 0
-81 79 78 0
82 -80 -81 0
-82 80 0
-82 81 0
73 -91 83 0
73 91 -83 0
-73 -92 83 0
-73 92 -83 0
73 -93 84 0
73 93 -84 0
-73 -94 84 0
-73 94 -84 0
73 -95 85 0
73 95 -85 0
-73 -96 85 0
-73 96 -85 0
73 -97 86 0
73 97 -86 0
-73 -98 86 0
-73 98 -86 0
74 -83 87 0
74 83 -87 0
-74 -84 87 0
-74 84 -87 0
74 -85 88 0
74 85 -88 0
-74 -86 88 0
-74 86 -88 0
75 -87 89 0
75 87 -89 0
-75 -88 89 0
-75 88 -89 0
-90 -82 -89 0
90 82 -89 0
90 -82 89 0
-90 82 89 0
18 0
-36 0
-54 0
-72 0
-90 0
-19 0
-20 0
21 0
-37 0
-38 0
-39 0
-55 0
56 0
-57 0
-73 0
74 0
75 0
